
 102   30
  10   10   10   10   10   10   10   10   10   10   10   10   10   10   10   10   10   10   10   10   10   10   10   10   10   10   10   10   10   10

   0   0   0   0   0   0   0   0   0   0   0   0   0   0   0   0   0   0   0   0   0   0   0   0   0   0   0   0   0   0   0  24 2 3 4 5 6 7 8 9 10 11 12 13 14 15 19 20 22 23 24 26 27 29 43 47 
   6   0   1   0   0   0   0   0   0   0   0   0   0   0   2   0   0   2   0   0   0   1   0   0   1   0   0   0   0   0   0  11 73 64 62 61 59 48 42 35 33 28 17 
   5   0   0   0   0   0   0   0   0   1   0   0   0   0   0   0   0   0   0   0   0   0   0   0   0   0   0   0   0   2   0  13 100 98 97 72 65 60 54 53 48 45 44 34 18 
   2   0   0   0   0   1   0   0   0   0   0   2   0   0   0   1   0   0   0   0   0   0   0   0   0   0   0   0   0   0   0  14 99 73 72 69 66 52 51 49 46 41 39 31 30 21 
   5   3   0   0   0   0   0   0   0   0   0   0   0   0   0   0   1   0   0   1   0   5   0   0   0   0   1   0   0   0   0  12 101 65 63 61 58 55 54 50 44 41 36 16 
   9   0   9   0   0   0   0   0   1   0   0   0   0   0   0   4   0   0   1   0   1   0   0   0   0   0   0   0   2   0   0  17 101 94 70 69 63 61 60 59 58 54 51 49 42 38 33 32 31 
   3   0   0   0   0   0   2   0   0   0   0   0   0   0   4   0   0   0   0   4   0   0   0   0   0   1   4   0   0   4   2  24 101 100 99 96 91 85 73 70 69 66 63 61 59 58 56 54 53 52 51 50 46 45 44 38 
   3   0   0   0   0   0   0   0   0   0   0   0   2   0   0   0   0   0   0   0   0   6   0   0   0   0   0   0   0   0   0  17 98 97 72 70 69 66 61 60 58 53 50 49 45 39 36 33 31 
   1   0   0   0   0   0   0   0   0   4   0   0   0   0   0   0   0   0   0   0   0   2   0   0   0   0   0   0   0   0   0  16 95 73 72 71 65 60 58 57 56 51 50 49 48 40 34 25 
   8   4   0   0   0   6   0   0   0   0   0   0   0   0   0   2   0   0   0   0   0   0   0   0   0   0   0   0   0   0   0  15 100 98 71 65 63 62 61 57 54 50 49 48 44 37 28 
   2   0   0   0   1   0   6   0   0   0   0   0   2   0   0   0   0   0   0   0   0   8   0   0   0   0   0   0   0   0   0  18 100 99 98 95 94 69 68 66 65 59 58 57 53 50 49 41 40 32 
   3   0   7   0   0   0   0   0   0   0   0   0   0   1   0   0   0   0   0   9   0   9   0   0   0   0   0   0   0   0   0  20 100 97 94 93 92 72 71 68 65 62 60 59 57 56 55 53 50 49 48 37 
  10   0   0   0   0   0   0   0   4   0   0   0   0   0   6   0   0   0   4   0   0   7   1   0   0   0   0   0   0   0   7  14 100 99 98 94 69 68 66 57 54 53 40 35 32 31 
   8   0   0   0   0   0   0   0   0   0   4   0   0   0  10   0   0   0   0   5   0   0   8   1   0   0   0   0   0   8   0  20 101 99 97 94 93 92 85 72 70 68 66 63 62 58 56 54 53 52 45 36 
   1   0   0   0   0   0   0   0   0   0   0   0   0   0   0   7   0   0   0   0   0   4   0   0   0   0   0   0  10   0   0  17 98 95 91 72 71 67 65 64 58 57 56 50 49 48 44 41 40 
   4   0   0   0   0   0   0   0   0   0   0   0   4   0   0   0   0   0   0   0   0   0   0   0   5   0   0   0   0  10   0  18 99 98 96 95 94 92 89 84 72 71 68 62 56 53 52 49 48 40 
   6   0   0   0   0   0   0   0   0   0   3   0   0   0   0   0   0   0   0   0   0   0   0   0   0   0   0   0   0   0   0  13 100 95 88 87 71 69 68 65 58 57 51 41 34 
   4   0   0   0   0   0   0   1   0   0   0   0   0   0   0   0   0   0   3   0   0   0   0   0   0   0   0   0   3   2   0  13 101 94 85 84 70 69 66 58 55 50 49 46 32 
   3   5   0   0   0   0   0   0   0   0   0   0   0   0   0   0   0   1   0   0   0   0   0   4   0   0   4   0   6   0   0  17 97 96 94 92 85 84 72 69 64 63 62 61 56 52 50 49 36 
   1   0   0   1   0   0   0   0   0   0   0   0   0   0   0   0   6   0   0   0   0   0   0   0   0   0   0   0   5   0   6  21 100 97 96 95 92 88 87 86 85 84 70 69 63 62 61 60 59 58 53 50 49 
   9   0   0   0   0   0   0   0   0   9   8   0   0   0   0   0   0   0   0   0   0   3   0  10   0   0   0   0   0   0   0  18 100 98 97 96 94 92 87 86 85 70 65 63 62 61 59 56 53 45 
   2   0   0   0   0   0   0   0   0   8   0   6   0   0   0   7   0   0   0   0   0   0   8   0   0   0   0   0   6   0   5  19 100 98 95 94 91 89 85 84 73 70 68 67 66 65 56 53 50 49 42 
  10   0   8   0   0   0   0   3   0   0   0   0   0   0   0   0   0   0   0   0   0   0   5   5   0   0   0   1   0   0   0  18 99 97 95 94 93 91 90 87 85 83 72 71 66 61 58 57 56 48 
   4   0   0   0   0   0   6   0   0   0   6   3   0   0   0   0   0   0   0   0   0   0   0   0   0   0   0   0   0   0   0  13 94 92 91 88 71 68 67 65 58 57 55 48 37 
   6   0   0   0   0   0   0   0   0   0   0   0   0   0   0   0   0   0   0   0   0   0   3   0   0   0   0   0   0   0   0  21 100 99 98 97 94 92 90 89 88 87 86 85 84 83 82 80 78 77 69 66 61 
  10   0   0   0   0   0   0   8   0  10   0   0   0   0   0   0   0   0   0   0   0   0   0   0   7   3   0   0   0   0   0  13 98 95 94 93 91 90 84 82 72 70 61 56 52 
   4   3   0   0   0   0   0   0   0   0   0   0   0   4   0   0   0   0   0   0   0   0   8   5   0   0   0   0   5   0   0  15 95 94 93 92 88 87 86 85 83 71 68 67 57 54 50 
   8   4   0   0   0   0   0   0   0   0   0  10   0   0   9   0   0   0   8   0   0   9   0   0   0   0   0   0   0   0   0  15 97 96 95 93 91 90 87 85 83 82 69 68 66 58 56 
   5   0   3   0   0   0   0   0   7   0   0   0   0   0   0   6   0   0   0   0   0   0   0   6   0   5   0   0   0   0   0  16 98 96 94 93 92 90 86 85 84 79 74 70 69 68 67 56 
   4   0   0   0   0   0   0   6   7   0   0   0  10   0   0   0   7   0   0   6   8   0   0   0   0   0   0   0  10   0   0  13 97 92 91 90 89 85 84 81 70 67 65 56 53 
   8   0   0   4   0   6   0   0   0   0   0   0   0   0   0   0   0   0   0   0   0   0   0   0   0   0   0   0   0   6   0  14 95 93 92 91 85 84 82 81 78 76 74 67 65 56 
   9   0   9   8   0   0   0   0   0   0   0   0   0   0   0   0   3   0   0   8   0   0   0   7   0   0   9   0   0   0   0  12 96 93 91 90 89 82 79 78 74 71 56 52 
   1   0   0   0   0   0   8   0   0   0   0   0   0   3   0   0   0   0   0   0   0   0   0   0   0   0   0   0   0   0   0  14 100 99 96 92 89 87 86 85 83 78 76 75 68 57 
   3   0   0   0   0   0   9   0   0   0   0   0   0   4   0   0   0   0   6   0   0   0   0   0   0   0   0   7   0   0   0  13 99 96 94 93 91 86 85 84 83 79 67 66 63 
   6   0   6   8   0   0   3   0   0   0   0   0   0   0   0   0   6   8   0   0   0   0   0   0   0   8   0   0   0   0   9   7 96 88 86 85 67 50 49 
   4   0   0   0   0   6   0   0   0   0   0   0   0   8   0   0   0   3   0   0   0   0   4   0   0   0   0   0   0   0   0  13 95 90 89 87 86 83 81 79 78 76 75 67 59 
  10   0   0   4   0   0   6   0   0   0   0   0   0   0   3   6   0   0   0   0   0   0   0   0   0   5   0   0   0   9   0  13 96 95 89 87 85 84 82 81 80 78 75 74 69 
   4   0   0   0   0   0   0   8   0   0   0   0   0   0   0   0   0   0   0   0   0   0   0   0   0   0   0   0   0   3   0  12 98 93 90 84 83 81 80 79 78 75 74 67 
   5   0   0   0   0   0  10   0   0   0   0   0   0   0   0   0   0   0   0   5   0   0   0   0   0   0   0   0   0   9   0   8 96 94 86 83 80 78 68 57 
   9   0   8   0   0   0   0   0   0   0   0   0   7   0   0   0   7   0   0   0   0   0  10   0   0   0   0   0   0   7   0  12 97 93 88 87 85 83 82 81 80 78 76 75 
   7  10   0   0   0   0   0   0  10   0   9   0   0   0   7   0   0   0   0   0   0   0   0   0   6   0   0   0   0   0   0  11 96 92 89 86 84 81 79 77 76 74 70 
   6  10   8   0   8   0   0   0   0   0   0  10   0   0   0   0   0   0   0   0   0   0   0   0   0   0   0   7   0   5   0  11 93 90 87 86 83 82 79 77 76 75 72 
   2   0   0   0   0   0   0   0   0   0   0   4   0   0   0   0   0   0   0   0   0   6   0   0   6   0   0   0   0   0   0  10 97 91 89 86 85 82 80 75 69 67 
  10   4   0   0   0   0   0   0   5   0   0   0   0   0   0   0   0   0   0   0   0   2   0   0   0   0   0   0   5   0   7  11 94 93 92 89 84 81 79 78 77 75 74 
  10   0   0   0   0   0   6   0   8   0   6   0   0   8   5   0   0   0   9   0   0   0   0   0   0   0   0   0   0   0   0   6 95 81 78 75 71 57 
   4   5   0   0   0   0   0   0   0   0   0   0   0   0   0   0   0   0   0   0   0   0   0   0   0   0   0   0   9   0   0   9 92 87 86 83 78 76 75 74 68 
   2   0   0   0   0   0   0   0   0   0   0   0  10   0   0   0   0   0   0   0   7  10   6   0   0   0   0   0   0   0   0   8 90 88 85 83 82 76 75 67 
   6   0   0   7   0   0   0   0   0   0   6   0   0   0   0   0   6   0   0   0   6   0   0   0   0   0   0   0   0   0   0   6 86 80 77 75 70 69 
   3   0   0   0   0   0   0   0   0   0   0   0   0   0   0   0   7   8   0   0   6   0   0   0   0  10   0   6   4   0   0   7 90 83 82 79 78 77 74 
   5   0   0   0   0   0   0   0   0   0   9   0   0   0   0   0   5   0   0   0   0   0   0   0   9   0   0   0   0   0   0   7 81 80 79 78 76 75 74 
   2   5   0   0   0   0   0   7   0   0   0   6   0   0   0   0   0   0   0   0   0   0   0   0   0   0   0   0   0   0   0   6 98 97 81 77 76 75 
   3   0   0   0   0   6   0   0   0   0   0   0   0   0   5   0   0   0   0   2   0   6   3   0   0   0   0   0   6   0   0   5 87 83 80 76 67 
   8   0   0   0   0   7   0   0   0   0   0   0   0   0   0   0   9   0   0   0   0   0   0   0   0   0   0   8   0   0   0   5 82 79 77 76 74 
   4   9   0   0   0   0   0   8   0   0   0   0   0   0   0   0   0   0   0   0   0  10   0   0   0   0   0   0   0   0   0   5 84 79 78 76 75 
   1   0   0   0   0   0   0   0   4   0   0   6   0   0   0   0   0   0   0   0   0   7   0   0   0   0   7   0   0   0   0   5 99 83 80 76 75 
   7   7   0   0   0   0   0   0   0   0   0   0   0   0   0   0   0   8   0   0   0   0   0   0   0   0   0   0   0   0   0   4 88 80 77 75 
   4   0   0   0   0   0   0   0   0   0   0   6   0   0   0   0   0   0   0   0   0   0   0   0   0   0   0   0   0   0   0   4 84 82 79 74 
   7   0   0   0   0   0   0   6   0   0   5   8   0   8   0   0   0   0   0   0   4   0   0   0   0   0   0   0   0   0   0   4 89 81 78 74 
   6   0   6   0   0   0   0   7   0   0   0   0   0   0   0  10   0   0   8   0   0   0   0   0   0   0   0   0   0   0   0   4 82 80 77 74 
  10  10   0   0   0   0   0   0   0   0   0   0   0   0   0   0   0   0   0   0  10   0   0   5   0   0   0   0   0   0   0   4 81 79 75 74 
   7   4   0   0   0   4   0   0   0   0   0   0   0   0   0   0   3   0   0  10   5   0   0   0   0   0   8   0   0   3   0   3 79 74 68 
   7   0   0   6   0   8   0   8   0   0   0   0   0   0   0   0   0   8   0   0   0   0   0   0   0   0   0   5   0   0   0   3 91 80 67 
   4   0   0   0   0   0   0   0   0   0   2   0   0   0   0   0   0   0   0   0   0   0   0   0   0   0   0   3   0   0   0   3 82 80 77 
   5   0   0   0   0   0   0   0   0   0   0   0   0   0   0   0   0   0   0   0   4   0   0   0   5   0   0   0   6   0   0   3 89 78 76 
  10   0   0   0   0   8   0   0   0   0   0   0   0   0   0   0   6   0   0   0  10   0   0   0   0   0   0   0   0   0   0   2 83 79 
   6   0   0   0   0   6   0   0   0   8   0   0   0   0   0   7   0   3   0   0   0   0   0   0   0   0   0   0   0  10   0   2 75 74 
   1   0   6   0   0   0   0   0   0   0   7   0   7   0   0   0   0   0   0   0   0   0   0   0   7   0   0   0   6   0   0   1 77 
   2   0   0   0   0   0   0   0   0   0   0   0   8  10   0   0   0   0   0   0   0   0   0   0   0   0   6   0   6   0   0   1 81 
   8   0   0   8   0   0   0   0   0   0   5   0   0   0   9   0   0   0   0   0   0   8   0   0   0   0   0   9   0   0   0   1 76 
   6   0   0   0   0   0   0   0   0   0   0   0   0   5   0   0   0   0   0   0   0   0   0   0   0   0   0   0   0   0   0   1 78 
   1   0   4   7   0   9   0   0   0   0   0   0   7   0   0   4   8   0   0   0   0   0   6   0   0   0   0   0   0   0   0   1 76 
   9   0   0   0   0   0   0   0   0   0   0   0   0   0   0   0   0   0   0   0   0   6   0   0   8   0   0   7   0   0   0   1 74 
   8   0   0   0   0   0   0   6   0   4   0   0   0   0   0   0   7   6   0   8   5   0   0   0   0   0   0   0   0   0   0   1 80 
  10   0   0   0   0   5   0   0   0   6   0   0   0   0   0   0   0   0   0   0   0   0   0   0   0   0   7   0   0   0   0   1 102
   8   0   0   0   0   0   0   0   0   0   0   0   0   0   0   6   0   0   0   0   0   3   0   0   0   6   0   0   0   0   0   1 102
   8   0   0   0   0   0   0   0   0   0   0   0   4   0   0   0   0   0   0   0   0   0   0   0   0   0   0   0   5   0   0   1 102
   9   0   6   7   0   0   0   0   0   0   0   0   0   0   0   0   0   7   0   7   0   0   0   0   0   0   0   0   0   0   0   1 102
   6   0   0   0   0   0   0   4   0   0   0   0   0   0   0   0   0   0   0   7   0   0   0   7   7   0   0   0   0   0   5   1 102
  10   5   5   0   0   0   0   0   0   0   0   0   5   0   2   0   0  10   0   0   0   0   0   0   0   0   0   0   0   0   0   1 102
   5   0   0   0   0   0   1   0   6   0   0   8   9   0   0   0   9   0   0   0   0   0   4   0   0   0   0   0   0   0   0   1 102
   4   0   0   9   0   0   0   0   0   0   0   0   0   0   0   0   0   0   0   0   0   0   0   0   0   0   0   8   0   0   0   1 102
   9   0   0   3   0   0   9   0   0   0   0   0   0   0   0   0   0   0   0   0   0   0   0   0   0   0   0   0   6   0   0   1 102
   6   0   4   0   0   0   0   0   0   0   0   7   0   0   0   0   6   0   0   0   0   0   0   0   0   0   0   0   0   0   5   1 102
  10   0   0   0   8   0   0   0   0   0   0   0   4   0   0   0   0   0   0   0   0   0   0   9   0   0   0   7   0   0   0   1 102
   1   0   0  10   0   0   0   0   0   0   0   0   0   0   0   0   0   0   7   0   0   0   0   0   0   0   0   0   0   0   0   1 102
   7   0   0   0   0   0   0   0   0   0   0   0   0   0  10   0   0   0   0   0   0   0   0   0   0   0   0   0   0   0   0   1 102
   2   0   0   0   0   0   0   0   7   0   0   0   0   0   0   0   0   0   0   0   0   0   0   7   0   0   0   0   0   0   0   1 102
   7   0   0   0   0   0   0   9   0   0   0   0   0   0   0   0   0   0   0   0   0   0   0   0   5   0   0   0   0   0   0   1 102
   8   0   0   0   0   0   0   0   0   4   4   0   0   0   0   0   0   0   0   0   0   8   0   0   0   0   0   0   0   0   0   1 102
   6   0   0   5   0   0   0   0   0   0   0   0   0   0   0   0   0   0   5   0   6   0   0   0   0   0   0   0   0   0   7   1 102
   1   0   0   0   0   0   0   0   0   0   0   3   0   9   0   6   0   0   0   0   0   0   0   0   0   0   0   0   0   0   0   1 102
   2   0   0   0   0   0   0   0   7   0   0   0   0   6   0   0   0   0   0   0   0   0   0   0   0   0   0   4   0   0   0   1 102
  10   0   0   4   0   0   0   4   0   0   0   3   0   0   0   0   0   7   0   0   0   0   9   0   0   0   0   0   0   0   0   1 102
   2   0   0   0   7   0   0   0   0   0   0   0   0   0   0   0   0   0   0   0   0   0   0   0   0   0   0   0   0   0   3   1 102
   1   0   0   7   0   0   0   0   0   0   0   0   5   0   0  10   0   6   0   0   0   6   0   0   0  10   0   0   0   0   0   1 102
   4   0   0   0   0   0   0   0   0   0   0   0   0   0   0   0   0   0   9   0   0   0   0   0   0   0   0   0   0   0   0   1 102
   8   0   0   0   0   0   0   5   0   0   0   0   0   0   0   0   0   6   0   0   0   0   8   0   0   0   0   0   0   0  10   1 102
   2   8   0   0   0   0   0   0   0   0  10   0   0   0   0   0   0   7   0   0   0   0   0   7   0   0   0   6   0   0   0   1 102
   4   0   0   0   0   0   0   0   0   0   0   0   0   0   0   8   0   0   0   0   0   0   0   5   0   0   0   6   0   0   0   1 102
  10   0   0   4   0   0   0   0   0   0   0   0   0   0   0   0   0   0   0   0   0   0   7   0   0   0   0   0   0   6   0   1 102
   1   0   0   0   0   0   0   0   0   0   0   8   0   0   0   0   0   0   0   0   6   0   0   0   0   0   8   0   8   0   0   1 102
   0   0   0   0   0   0   0   0   0   0   0   0   0   0   0   0   0   0   0   0   0   0   0   0   0   0   0   0   0   0   0   0 
